
ACE v2.1 

  instance
    name:PyCSP

  Loading variables...

  Loading constraints...

  domains
    types:1  values:264  sizes:[2:132]
  variables
    count:132  arrays:1  degrees:[113:4,114:38,115:90]
  constraints
    count:3662  specific:32  groups:2  arities:[4:3630,12:11,22:11,24:10]
    distribution:[Cardinality:11,ConstraintIntension:3630,LexicographicLE:21]
    intStructures:(1,shared:3629)
    wck:1.67  cpu:2.046  mem:55M73

  Building solver... 

  solver
    guaranteedAC:true
    wck:1.73  cpu:2.093  mem:60M316

  preprocessing
    revisions:(14520,useless=14520)  values:264  unsat:false
    wck:0.022  cpu:2.109  mem:60M316

    run0  dpts:0..6  effs:51  fails:1  wrgs:8  wck:0.00

  global
    effs:51  revisions:(28361,useless=28349)
    stop:FULL_EXPLORATION  wrgs:8
    wck:1.79  cpu:2.125  mem:60M838

s UNSATISFIABLE

d WRONG DECISIONS 8
d FOUND SOLUTIONS 0
d COMPLETE EXPLORATION

c real time : 2.125
